solution status: optimal solution found
objective value:                     117995.407183663
d11(0,0)                                            1 	(obj:0)
d11(1,1)                                            1 	(obj:0)
d11(1,2)                                            1 	(obj:0)
d11(2,3)                                            1 	(obj:0)
d11(2,5)                                            1 	(obj:0)
d11(3,7)                                            1 	(obj:0)
d11(3,8)                                            1 	(obj:0)
d11(3,9)                                            1 	(obj:0)
d11(3,10)                                           1 	(obj:0)
d11(3,11)                                           1 	(obj:0)
d11(3,12)                                           1 	(obj:0)
d11(3,13)                                           1 	(obj:0)
d11(3,14)                                           1 	(obj:0)
d12(2,4)                                            1 	(obj:0)
d12(2,6)                                            1 	(obj:0)
d21(3,7)                                            1 	(obj:0)
d21(3,9)                                            1 	(obj:0)
d21(3,11)                                           1 	(obj:0)
WB(2)                                3315.65537776224 	(obj:0)
y2(2,4)                              637.271814183628 	(obj:0)
y2(2,6)                              637.271814183628 	(obj:0)
STE(1,1)                             7035.75010111118 	(obj:0)
STE(0,0)                                         9450 	(obj:0)
STE(1,2)                                         8694 	(obj:0)
STE(2,3)                             5481.00025000009 	(obj:0)
STE(2,4)                             6885.15832458563 	(obj:0)
STE(2,5)                             7139.25014888891 	(obj:0)
STE(2,6)                             8543.40822347445 	(obj:0)
STE(3,7)                             3066.75035111118 	(obj:0)
STE(3,8)                                   4725.00025 	(obj:0)
STE(3,9)                             4470.90842569663 	(obj:0)
STE(3,10)                            6129.15832458554 	(obj:0)
STE(3,11)                            4725.00024999991 	(obj:0)
STE(3,12)                            6383.25014888882 	(obj:0)
STE(3,13)                             6129.1583245855 	(obj:0)
STE(3,14)                            7787.40822347435 	(obj:0)
AVE(2)                               3315.65537776224 	(obj:0)
WB(3)                                3315.65799770399 	(obj:0)
y1(1,1)                              1492.42490899994 	(obj:0)
y1(2,3)                              718.874865999981 	(obj:0)
y1(2,5)                              718.874865999981 	(obj:0)
y1(3,7)                              1492.42490900002 	(obj:0)
y1(3,9)                               1492.4249090001 	(obj:0)
y1(3,11)                              1492.4249090001 	(obj:0)
y1(3,13)                             1492.42490900006 	(obj:0)
AVE(3)                               3315.65799770399 	(obj:0)
WG(1)                                3248.33172520893 	(obj:10)
BG(1)                                947.960773770631 	(obj:10)
BG(2)                                3406.95572040818 	(obj:10)
BG(3)                                4196.29249897965 	(obj:10)
AVE(1)                               3248.33172520918 	(obj:0)
